p cnf 7230 17
-4190 -4826 -5230 5539 0
-3638 -4204 -5222 5537 0
4190 -5540 0
3638 -5538 0
3188 4884 -5541 0
-3188 -5542 0
4826 -5540 0
4204 -5538 0
5541 5542 0
-5539 5540 0
-5537 5538 0
-4884 -5542 0
5230 -5540 0
5222 -5538 0
5226 -5544 0
4812 -5544 0
4202 -5544 0
